N = 58;

creditos = [2, 1, 3, 2, 5, 3, 4, 2, 3, 2, 3, 4, 2, 4, 4, 4, 4, 3, 2, 2, 3, 3, 3, 4, 2, 4, 3, 3, 2, 2, 3, 2, 4, 3, 4, 2, 3, 4, 3, 4, 3, 3, 4, 2, 3, 3, 4, 3, 3, 3, 4, 2, 3, 6, 1, 6, 3, 6];
sem_base = [1, 1, 1, 1, 2, 2, 2, 2, 2, 2, 3, 3, 3, 3, 3, 4, 4, 4, 4, 4, 5, 5, 5, 6, 6, 6, 6, 6, 6, 6, 6, 7, 7, 7, 7, 7, 8, 8, 8, 8, 9, 9, 9, 9, 9, 10, 10, 10, 10, 10, 11, 11, 11, 11, 12, 12, 12, 12];

NUM_PRE = 57;
prereqs = [| 4, 5 | 3, 6 | 3, 7 | 3, 8 | 1, 10 | 3, 11 | 7, 12 | 8, 13 | 5, 14 | 6, 15 | 15, 16 | 14, 17 | 12, 18 | 9, 19 | 13, 20 | 16, 21 | 4, 22 | 17, 23 | 12, 24 | 16, 24 | 13, 25 | 22, 26 | 23, 26 | 18, 28 | 20, 29 | 15, 30 | 23, 31 | 28, 33 | 31, 34 | 11, 34 | 17, 35 | 30, 36 | 21, 37 | 30, 37 | 31, 38 | 21, 39 | 33, 39 | 33, 40 | 26, 41 | 40, 41 | 36, 42 | 23, 42 | 38, 43 | 27, 45 | 39, 46 | 42, 47 | 43, 48 | 40, 49 | 39, 49 | 45, 50 | 49, 51 | 43, 52 | 50, 52 | 35, 53 | 52, 56 | 27, 57 | 54, 58 |];

NUM_CO = 5;
coreqs = [| 7, 8 | 12, 13 | 18, 20 | 24, 25 | 28, 29 |];